Problem:    
Rows:       248
Columns:    89 (72 integer, 72 binary)
Non-zeros:  820
Status:     INTEGER OPTIMAL
Objective:  value = 88.616655 (MINimum)

   No.   Row name        Activity     Lower bound   Upper bound
------ ------------    ------------- ------------- -------------
     1 r.5                   2088.62             0               
     2 r.6                  -1988.07       -1990.4               
     3 r.7                   88.6167             0               
     4 r.8                  -1882.37      -1988.02               
     5 r.9                   88.6167             0               
     6 r.10                 -1877.66      -1989.67               
     7 r.11                  2088.62             0               
     8 r.12                 -1963.22         -1988               
     9 r.13                  2088.62             0               
    10 r.14                 -1960.22      -1984.05               
    11 r.15                  88.6167             0               
    12 r.16                 -1868.67       -1983.3               
    13 r.17                  2088.62             0               
    14 r.18                 -1977.67       -1991.1               
    15 r.19                  88.6167             0               
    16 r.20                  -1873.4      -1988.03               
    17 r.21                  88.6167             0               
    18 r.22                  2.33347      -1992.03               
    19 r.23                  2088.62             0               
    20 r.24                 -1975.22      -1990.42               
    21 r.25                  88.6167             0               
    22 r.26                 -1889.49      -1978.11               
    23 r.27                  2088.62             0               
    24 r.28                 -1911.38      -1990.18               
    25 r.29                  2088.62             0               
    26 r.30                 -1911.38      -1977.68               
    27 r.31                  88.6167             0               
    28 r.32                 -1897.35      -1990.17               
    29 r.33                  2088.62             0               
    30 r.34                 -1998.68      -1998.68               
    31 r.35                  88.6167             0               
    32 r.36                   1.3241      -1996.63               
    33 r.37                        1             1             = 
    34 r.38                        1             1             = 
    35 r.39                        1             1             = 
    36 r.40                        1             1             = 
    37 r.41                        1             1             = 
    38 r.42                        1             1             = 
    39 r.43                        1             1             = 
    40 r.44                        1             1             = 
    41 r.45                  108.904       10.3275               
    42 r.46                 -107.404       -1990.4               
    43 r.47                  1922.15       12.0003               
    44 r.48                 -1925.15      -1988.02               
    45 r.49                  26.3483       15.9516               
    46 r.50                 -26.3483       -1990.4               
    47 r.51                  16.6972       16.6972               
    48 r.52                 -16.6972      -1988.02               
    49 r.53                   8.8967        8.8967               
    50 r.54                  -8.8967       -1990.4               
    51 r.55                  11.9737       11.9737               
    52 r.56                 -11.9737      -1988.02               
    53 r.57                   1988.9       7.96632               
    54 r.58                  -1988.9       -1990.4               
    55 r.59                  1910.15        9.5791               
    56 r.60                 -1910.15      -1988.02               
    57 r.61                 -1902.92      -1951.59               
    58 r.62                 -1924.81      -1937.14               
    59 r.63                 -4.12138      -1951.59               
    60 r.64                 -26.0128      -1937.14               
    61 r.65                  75.1851       22.3181               
    62 r.66                 -75.1851       -1990.4               
    63 r.67                  1988.02        9.8289               
    64 r.68                 -1988.02      -1988.02               
    65 r.69                 -1987.89       -1988.9               
    66 r.70                 -1886.69      -1985.02               
    67 r.71                 -1987.89       -1988.9               
    68 r.72                 -1886.69      -1985.02               
    69 r.73                   1891.1        9.5981               
    70 r.74                  -1892.6      -1989.67               
    71 r.75                  77.8496       11.9833               
    72 r.76                 -74.8496         -1988               
    73 r.77                  1918.94       15.9516               
    74 r.78                 -1918.94      -1989.67               
    75 r.79                  91.5468       16.6972               
    76 r.80                 -91.5468         -1988               
    77 r.81                  1901.49        8.8967               
    78 r.82                 -1901.49      -1989.67               
    79 r.83                  86.8233       11.9737               
    80 r.84                 -86.8233         -1988               
    81 r.85                   1881.5       7.96632               
    82 r.86                  -1881.5      -1989.67               
    83 r.87                     1985        9.5791               
    84 r.88                    -1985         -1988               
    85 r.89                  1989.67       21.8914               
    86 r.90                 -1989.67      -1989.67               
    87 r.91                  48.8368        9.8246               
    88 r.92                 -48.8368         -1988               
    89 r.93                 -32.2189      -1951.16               
    90 r.94                 -18.1894      -1937.13               
    91 r.95                 -1951.16      -1951.16               
    92 r.96                 -1937.13      -1937.13               
    93 r.97                 -1880.49      -1988.17               
    94 r.98                 -1961.54         -1985               
    95 r.99                 -1880.49      -1988.17               
    96 r.100                -1961.54         -1985               
    97 r.101                 1972.15        9.5981               
    98 r.102                -1973.65      -1984.05               
    99 r.103                  1986.3       11.9833               
   100 r.104                 -1983.3       -1983.3               
   101 r.105                 82.5557       10.3275               
   102 r.106                -81.0557      -1984.05               
   103 r.107                 1905.45       12.0003               
   104 r.108                -1908.45       -1983.3               
   105 r.109                -1982.55      -1982.55               
   106 r.110                   -1891       -1980.3               
   107 r.111                -86.8233      -1982.55               
   108 r.112                  4.7235       -1980.3               
   109 r.113                 1962.55       7.96632               
   110 r.114                -1962.55      -1984.05               
   111 r.115                 1893.45        9.5791               
   112 r.116                -1893.45       -1983.3               
   113 r.117                 70.7282       21.8914               
   114 r.118                -70.7282      -1984.05               
   115 r.119                 1957.29        9.8246               
   116 r.120                -1957.29       -1983.3               
   117 r.121                -1951.16      -1951.16               
   118 r.122                -1937.13      -1937.13               
   119 r.123                  -42.71      -1951.16               
   120 r.124                -28.6805      -1937.13               
   121 r.125                -1961.54      -1982.55               
   122 r.126                   -1870       -1980.3               
   123 r.127                -1961.54      -1982.55               
   124 r.128                   -1870       -1980.3               
   125 r.129                  1989.6        9.5981               
   126 r.130                 -1991.1       -1991.1               
   127 r.131                 1991.03       11.9833               
   128 r.132                -1988.03      -1988.03               
   129 r.133                 100.007       10.3275               
   130 r.134                -98.5073       -1991.1               
   131 r.135                 1910.18       12.0003               
   132 r.136                -1913.18      -1988.03               
   133 r.137                -1982.55      -1982.55               
   134 r.138                   -1891       -1980.3               
   135 r.139                -86.8233      -1982.55               
   136 r.140                  4.7235       -1980.3               
   137 r.141                 1980.01       7.96632               
   138 r.142                -1980.01       -1991.1               
   139 r.143                 1898.18        9.5791               
   140 r.144                -1898.18      -1988.03               
   141 r.145                 88.1798       21.8914               
   142 r.146                -88.1798       -1991.1               
   143 r.147                 1962.01        9.8246               
   144 r.148                -1962.01      -1988.03               
   145 r.149                -1933.71      -1951.16               
   146 r.150                -1919.68      -1937.13               
   147 r.151                -37.9865      -1951.16               
   148 r.152                 -23.957      -1937.13               
   149 r.153                   -1979         -1979               
   150 r.154                -1874.72      -1963.81               
   151 r.155                   -1979         -1979               
   152 r.156                -1874.72      -1963.81               
   153 r.157                  9.5981        9.5981               
   154 r.158                -11.0981      -1992.03               
   155 r.159                 92.8499       11.9833               
   156 r.160                -89.8499      -1990.42               
   157 r.161                 120.002       10.3275               
   158 r.162                -118.502      -1992.03               
   159 r.163                 12.0003       12.0003               
   160 r.164                -15.0003      -1990.42               
   161 r.165                 37.4464       15.9516               
   162 r.166                -37.4464      -1992.03               
   163 r.167                 106.547       16.6972               
   164 r.168                -106.547      -1990.42               
   165 r.169                 19.9948        8.8967               
   166 r.170                -19.9948      -1992.03               
   167 r.171                 101.824       11.9737               
   168 r.172                -101.824      -1990.42               
   169 r.173                -1891.83      -1951.59               
   170 r.174                -1913.72      -1937.14               
   171 r.175                -1914.27      -1951.59               
   172 r.176                -1936.16      -1937.14               
   173 r.177                -1913.72      -1951.16               
   174 r.178                -1899.69      -1937.13               
   175 r.179                -1936.16      -1951.16               
   176 r.180                -1922.13      -1937.13               
   177 r.181                 1.00937      -1989.03               
   178 r.182                -1976.54      -1984.42               
   179 r.183                 1.00937      -1989.03               
   180 r.184                -1976.54      -1984.42               
   181 r.185                -1902.92      -1951.59               
   182 r.186                -1924.81      -1937.14               
   183 r.187                -4.12138      -1951.59               
   184 r.188                -26.0128      -1937.14               
   185 r.189                 11.8275       10.3275               
   186 r.190                -10.3275      -1978.11               
   187 r.191                 1948.16       12.0003               
   188 r.192                -1951.16      -1990.18               
   189 r.193                 1929.27       15.9516               
   190 r.194                -1929.27      -1978.11               
   191 r.195                   42.71       16.6972               
   192 r.196                  -42.71      -1990.18               
   193 r.197                 1911.82        8.8967               
   194 r.198                -1911.82      -1978.11               
   195 r.199                 37.9865       11.9737               
   196 r.200                -37.9865      -1990.18               
   197 r.201                -1891.83      -1951.59               
   198 r.202                -1913.72      -1937.14               
   199 r.203                -1914.27      -1951.59               
   200 r.204                -1936.16      -1937.14               
   201 r.205                 1978.11       22.3181               
   202 r.206                -1978.11      -1978.11               
   203 r.207                 14.0295        9.8289               
   204 r.208                -14.0295      -1990.18               
   205 r.209                 1923.31        9.5981               
   206 r.210                -1924.81      -1977.68               
   207 r.211                 14.9833       11.9833               
   208 r.212                -11.9833      -1990.17               
   209 r.213                -32.2189      -1951.16               
   210 r.214                -18.1894      -1937.13               
   211 r.215                -1951.16      -1951.16               
   212 r.216                -1937.13      -1937.13               
   213 r.217                -1951.16      -1951.16               
   214 r.218                -1937.13      -1937.13               
   215 r.219                  -42.71      -1951.16               
   216 r.220                -28.6805      -1937.13               
   217 r.221                -1933.71      -1951.16               
   218 r.222                -1919.68      -1937.13               
   219 r.223                -37.9865      -1951.16               
   220 r.224                 -23.957      -1937.13               
   221 r.225                -1913.72      -1951.16               
   222 r.226                -1899.69      -1937.13               
   223 r.227                -1936.16      -1951.16               
   224 r.228                -1922.13      -1937.13               
   225 r.229                 21.8914       21.8914               
   226 r.230                -21.8914      -1977.68               
   227 r.231                 1985.97        9.8246               
   228 r.232                -1985.97      -1990.17               
   229 r.233                -1987.89       -1988.9               
   230 r.234                -1886.69      -1985.02               
   231 r.235                -1987.89       -1988.9               
   232 r.236                -1886.69      -1985.02               
   233 r.237                -1880.49      -1988.17               
   234 r.238                -1961.54         -1985               
   235 r.239                -1880.49      -1988.17               
   236 r.240                -1961.54         -1985               
   237 r.241                -1961.54      -1982.55               
   238 r.242                   -1870       -1980.3               
   239 r.243                -1961.54      -1982.55               
   240 r.244                   -1870       -1980.3               
   241 r.245                   -1979         -1979               
   242 r.246                -1874.72      -1963.81               
   243 r.247                   -1979         -1979               
   244 r.248                -1874.72      -1963.81               
   245 r.249                 1.00937      -1989.03               
   246 r.250                -1976.54      -1984.42               
   247 r.251                 1.00937      -1989.03               
   248 r.252                -1976.54      -1984.42               

   No. Column name       Activity     Lower bound   Upper bound
------ ------------    ------------- ------------- -------------
     1 tt                    88.6167             0               
     2 s_1_1        *              1             0             1 
     3 t_1_1                 75.1851             0               
     4 s_1_6        *              0             0             1 
     5 s_2_1        *              0             0             1 
     6 t_2_1                 1973.99             0               
     7 s_2_6        *              1             0             1 
     8 s_1_2        *              0             0             1 
     9 t_1_2                 1967.78             0               
    10 s_1_7        *              1             0             1 
    11 s_2_2        *              1             0             1 
    12 t_2_2                 48.8368             0               
    13 s_2_7        *              0             0             1 
    14 s_1_3        *              1             0             1 
    15 t_1_3                 48.8368             0               
    16 s_2_3        *              0             0             1 
    17 t_2_3                 1957.29             0               
    18 s_1_4        *              1             0             1 
    19 t_1_4                 66.2884             0               
    20 s_2_4        *              0             0             1 
    21 t_2_4                 1962.01             0               
    22 s_1_5        *              0             0             1 
    23 t_1_5                 86.2832             0               
    24 s_2_5        *              1             0             1 
    25 t_2_5                 63.8371             0               
    26 t_1_6                 1978.11             0               
    27 t_2_6                       0             0               
    28 t_1_7                       0             0               
    29 t_2_7                 1985.97             0               
    30 s_1_8        *              1             0             1 
    31 t_1_8                 87.2926             0               
    32 s_2_8        *              0             0             1 
    33 t_2_8                 87.2926             0               
    34 u_1_1_2      *              1             0             1 
    35 u_2_1_2      *              0             0             1 
    36 u_1_1_3      *              0             0             1 
    37 u_2_1_3      *              0             0             1 
    38 u_1_1_4      *              0             0             1 
    39 u_2_1_4      *              0             0             1 
    40 u_1_1_5      *              1             0             1 
    41 u_2_1_5      *              0             0             1 
    42 u_1_1_7      *              0             0             1 
    43 u_2_1_7      *              1             0             1 
    44 u_1_2_1      *              0             0             1 
    45 u_2_2_1      *              1             0             1 
    46 u_1_2_3      *              0             0             1 
    47 u_2_2_3      *              1             0             1 
    48 u_1_2_4      *              0             0             1 
    49 u_2_2_4      *              1             0             1 
    50 u_1_2_5      *              0             0             1 
    51 u_2_2_5      *              1             0             1 
    52 u_1_2_6      *              1             0             1 
    53 u_2_2_6      *              0             0             1 
    54 u_1_3_1      *              1             0             1 
    55 u_2_3_1      *              1             0             1 
    56 u_1_3_2      *              1             0             1 
    57 u_2_3_2      *              0             0             1 
    58 u_1_3_5      *              1             0             1 
    59 u_2_3_5      *              0             0             1 
    60 u_1_3_6      *              1             0             1 
    61 u_2_3_6      *              0             0             1 
    62 u_1_4_1      *              1             0             1 
    63 u_2_4_1      *              1             0             1 
    64 u_1_4_2      *              1             0             1 
    65 u_2_4_2      *              0             0             1 
    66 u_1_4_5      *              1             0             1 
    67 u_2_4_5      *              0             0             1 
    68 u_1_4_6      *              1             0             1 
    69 u_2_4_6      *              0             0             1 
    70 u_1_5_1      *              0             0             1 
    71 u_2_5_1      *              1             0             1 
    72 u_1_5_2      *              1             0             1 
    73 u_2_5_2      *              0             0             1 
    74 u_1_5_3      *              0             0             1 
    75 u_2_5_3      *              1             0             1 
    76 u_1_5_4      *              0             0             1 
    77 u_2_5_4      *              1             0             1 
    78 u_1_6_2      *              0             0             1 
    79 u_2_6_2      *              1             0             1 
    80 u_1_6_3      *              0             0             1 
    81 u_2_6_3      *              1             0             1 
    82 u_1_6_4      *              0             0             1 
    83 u_2_6_4      *              1             0             1 
    84 u_1_6_7      *              0             0             1 
    85 u_2_6_7      *              1             0             1 
    86 u_1_7_1      *              1             0             1 
    87 u_2_7_1      *              0             0             1 
    88 u_1_7_6      *              1             0             1 
    89 u_2_7_6      *              0             0             1 

Integer feasibility conditions:

KKT.PE: max.abs.err = 4.55e-13 on row 14
        max.rel.err = 1.09e-16 on row 14
        High quality

KKT.PB: max.abs.err = 2.49e-14 on row 225
        max.rel.err = 1.09e-15 on row 225
        High quality

End of output
